p cnf 271 1931
130 141 193 0
195 197 200 0
100 161 0
125 140 166 0
61 109 132 171 0
57 209 211 0
54 85 90 96 258 0
40 112 0
34 92 136 234 0
114 119 158 213 0
28 103 104 122 216 218 0
26 139 152 154 0
23 98 99 143 157 163 0
167 221 0
16 18 170 178 0
106 129 149 172 0
83 89 93 0
79 80 0
101 156 160 0
77 164 0
71 73 74 76 0
67 68 69 0
62 66 124 0
59 60 108 0
56 58 81 0
51 53 55 78 0
42 43 44 45 47 87 0
36 37 39 84 117 0
31 32 33 35 118 144 147 0
29 30 102 110 111 0
24 25 27 123 134 135 0
21 22 0
13 14 17 19 0
11 64 105 107 0
150 174 176 177 0
94 180 181 0
182 183 184 185 0
121 186 188 189 0
162 190 191 192 0
120 142 165 194 0
75 196 198 201 0
70 126 203 204 0
63 206 0
82 97 127 207 0
48 52 208 0
38 41 88 210 212 0
49 116 146 148 0
113 133 0
159 214 0
215 217 219 0
20 168 220 0
12 65 222 223 224 0
173 175 225 0
-85 -209 0
-145 -209 0
-209 -234 0
-85 -145 0
-85 -234 0
-145 -234 0
-221 -226 0
-178 -221 0
-106 -221 0
-178 -226 0
-106 -226 0
-106 -178 0
-66 -108 0
-58 -66 0
-58 -108 0
-70 -229 0
-63 -229 0
-63 -70 0
-209 -221 0
-66 -209 0
-209 -229 0
-66 -221 0
-221 -229 0
-66 -229 0
-85 -226 0
-85 -108 0
-70 -85 0
-108 -226 0
-70 -226 0
-70 -108 0
-145 -178 0
-58 -145 0
-63 -145 0
-58 -178 0
-63 -178 0
-58 -63 0
-106 -234 0
-26 -103 0
-98 -103 0
-26 -98 0
-39 -47 0
-35 -47 0
-30 -47 0
-47 -134 0
-35 -39 0
-30 -39 0
-39 -134 0
-30 -35 0
-35 -134 0
-30 -134 0
-19 -64 0
-19 -174 0
-19 -230 0
-19 -180 0
-64 -174 0
-64 -230 0
-64 -180 0
-174 -230 0
-174 -180 0
-180 -230 0
-182 -186 0
-182 -232 0
-182 -190 0
-165 -182 0
-75 -182 0
-186 -232 0
-186 -190 0
-165 -186 0
-75 -186 0
-190 -232 0
-165 -232 0
-75 -232 0
-165 -190 0
-75 -190 0
-75 -165 0
-82 -203 0
-52 -203 0
-203 -210 0
-86 -203 0
-146 -203 0
-52 -82 0
-82 -210 0
-82 -86 0
-82 -146 0
-52 -210 0
-52 -86 0
-52 -146 0
-86 -210 0
-146 -210 0
-86 -146 0
-227 -235 0
-168 -235 0
-222 -235 0
-225 -235 0
-179 -235 0
-168 -227 0
-222 -227 0
-225 -227 0
-179 -227 0
-168 -222 0
-168 -225 0
-168 -179 0
-222 -225 0
-179 -222 0
-179 -225 0
-182 -203 0
-182 -235 0
-203 -235 0
-19 -47 0
-47 -186 0
-47 -82 0
-47 -227 0
-19 -186 0
-19 -82 0
-19 -227 0
-82 -186 0
-186 -227 0
-82 -227 0
-39 -64 0
-39 -232 0
-39 -52 0
-39 -168 0
-64 -232 0
-52 -64 0
-64 -168 0
-52 -232 0
-168 -232 0
-52 -168 0
-35 -103 0
-103 -174 0
-103 -190 0
-103 -210 0
-103 -222 0
-35 -174 0
-35 -190 0
-35 -210 0
-35 -222 0
-174 -190 0
-174 -210 0
-174 -222 0
-190 -210 0
-190 -222 0
-210 -222 0
-26 -30 0
-26 -230 0
-26 -165 0
-26 -86 0
-26 -225 0
-30 -230 0
-30 -165 0
-30 -86 0
-30 -225 0
-165 -230 0
-86 -230 0
-225 -230 0
-86 -165 0
-165 -225 0
-86 -225 0
-98 -134 0
-98 -180 0
-75 -98 0
-98 -146 0
-98 -179 0
-134 -180 0
-75 -134 0
-134 -146 0
-134 -179 0
-75 -180 0
-146 -180 0
-179 -180 0
-75 -146 0
-75 -179 0
-146 -179 0
-129 -236 0
-45 -117 0
-33 -45 0
-45 -123 0
-33 -117 0
-117 -123 0
-33 -123 0
-17 -105 0
-17 -150 0
-17 -94 0
-105 -150 0
-94 -105 0
-94 -150 0
-223 -238 0
-45 -129 0
-17 -129 0
-17 -45 0
-117 -236 0
-105 -236 0
-105 -117 0
-33 -150 0
-33 -223 0
-150 -223 0
-94 -123 0
-123 -238 0
-94 -238 0
-100 -166 0
-72 -100 0
-100 -239 0
-100 -132 0
-72 -166 0
-166 -239 0
-132 -166 0
-72 -239 0
-72 -132 0
-132 -239 0
-112 -136 0
-112 -158 0
-112 -216 0
-112 -157 0
-136 -158 0
-136 -216 0
-136 -157 0
-158 -216 0
-157 -158 0
-157 -216 0
-55 -124 0
-44 -124 0
-37 -124 0
-44 -55 0
-37 -55 0
-37 -44 0
-153 -240 0
-14 -153 0
-11 -153 0
-14 -240 0
-11 -240 0
-11 -14 0
-207 -241 0
-208 -241 0
-88 -241 0
-148 -241 0
-207 -208 0
-88 -207 0
-148 -207 0
-88 -208 0
-148 -208 0
-88 -148 0
-215 -242 0
-215 -220 0
-215 -224 0
-215 -237 0
-220 -242 0
-224 -242 0
-237 -242 0
-220 -224 0
-220 -237 0
-224 -237 0
-124 -153 0
-100 -112 0
-55 -100 0
-100 -240 0
-100 -241 0
-100 -215 0
-55 -112 0
-112 -240 0
-112 -241 0
-112 -215 0
-55 -240 0
-55 -241 0
-55 -215 0
-240 -241 0
-215 -240 0
-215 -241 0
-136 -166 0
-44 -166 0
-14 -166 0
-166 -207 0
-166 -242 0
-44 -136 0
-14 -136 0
-136 -207 0
-136 -242 0
-14 -44 0
-44 -207 0
-44 -242 0
-14 -207 0
-14 -242 0
-207 -242 0
-72 -158 0
-37 -72 0
-11 -72 0
-72 -208 0
-72 -220 0
-37 -158 0
-11 -158 0
-158 -208 0
-158 -220 0
-11 -37 0
-37 -208 0
-37 -220 0
-11 -208 0
-11 -220 0
-208 -220 0
-216 -239 0
-88 -239 0
-224 -239 0
-88 -216 0
-216 -224 0
-88 -224 0
-132 -157 0
-132 -148 0
-132 -237 0
-148 -157 0
-157 -237 0
-148 -237 0
-211 -258 0
-211 -243 0
-104 -211 0
-99 -211 0
-243 -258 0
-104 -258 0
-99 -258 0
-104 -243 0
-99 -243 0
-99 -104 0
-167 -244 0
-167 -170 0
-83 -167 0
-167 -245 0
-170 -244 0
-83 -244 0
-244 -245 0
-83 -170 0
-170 -245 0
-83 -245 0
-246 -247 0
-246 -248 0
-131 -246 0
-156 -246 0
-76 -246 0
-69 -246 0
-247 -248 0
-131 -247 0
-156 -247 0
-76 -247 0
-69 -247 0
-131 -248 0
-156 -248 0
-76 -248 0
-69 -248 0
-131 -156 0
-76 -131 0
-69 -131 0
-76 -156 0
-69 -156 0
-69 -76 0
-60 -62 0
-56 -62 0
-53 -62 0
-43 -62 0
-32 -62 0
-27 -62 0
-56 -60 0
-53 -60 0
-43 -60 0
-32 -60 0
-27 -60 0
-53 -56 0
-43 -56 0
-32 -56 0
-27 -56 0
-43 -53 0
-32 -53 0
-27 -53 0
-32 -43 0
-27 -43 0
-27 -32 0
-22 -155 0
-155 -249 0
-155 -250 0
-13 -155 0
-155 -176 0
-155 -181 0
-22 -249 0
-22 -250 0
-13 -22 0
-22 -176 0
-22 -181 0
-249 -250 0
-13 -249 0
-176 -249 0
-181 -249 0
-13 -250 0
-176 -250 0
-181 -250 0
-13 -176 0
-13 -181 0
-176 -181 0
-183 -251 0
-251 -252 0
-251 -253 0
-188 -251 0
-183 -252 0
-183 -253 0
-183 -188 0
-252 -253 0
-188 -252 0
-188 -253 0
-113 -137 0
-113 -159 0
-113 -217 0
-113 -254 0
-137 -159 0
-137 -217 0
-137 -254 0
-159 -217 0
-159 -254 0
-217 -254 0
-167 -211 0
-211 -246 0
-62 -211 0
-155 -211 0
-211 -251 0
-113 -211 0
-167 -246 0
-62 -167 0
-155 -167 0
-167 -251 0
-113 -167 0
-62 -246 0
-155 -246 0
-246 -251 0
-113 -246 0
-62 -155 0
-62 -251 0
-62 -113 0
-155 -251 0
-113 -155 0
-113 -251 0
-244 -258 0
-247 -258 0
-60 -258 0
-22 -258 0
-183 -258 0
-137 -258 0
-244 -247 0
-60 -244 0
-22 -244 0
-183 -244 0
-137 -244 0
-60 -247 0
-22 -247 0
-183 -247 0
-137 -247 0
-22 -60 0
-60 -183 0
-60 -137 0
-22 -183 0
-22 -137 0
-137 -183 0
-170 -243 0
-243 -248 0
-56 -243 0
-243 -249 0
-243 -252 0
-159 -243 0
-170 -248 0
-56 -170 0
-170 -249 0
-170 -252 0
-159 -170 0
-56 -248 0
-248 -249 0
-248 -252 0
-159 -248 0
-56 -249 0
-56 -252 0
-56 -159 0
-249 -252 0
-159 -249 0
-159 -252 0
-53 -131 0
-131 -250 0
-131 -253 0
-131 -217 0
-53 -250 0
-53 -253 0
-53 -217 0
-250 -253 0
-217 -250 0
-217 -253 0
-43 -156 0
-13 -156 0
-156 -188 0
-156 -254 0
-13 -43 0
-43 -188 0
-43 -254 0
-13 -188 0
-13 -254 0
-188 -254 0
-83 -104 0
-76 -104 0
-32 -104 0
-104 -176 0
-76 -83 0
-32 -83 0
-83 -176 0
-32 -76 0
-76 -176 0
-32 -176 0
-99 -245 0
-69 -99 0
-27 -99 0
-99 -181 0
-69 -245 0
-27 -245 0
-181 -245 0
-27 -69 0
-69 -181 0
-27 -181 0
-193 -195 0
-161 -193 0
-193 -205 0
-161 -195 0
-195 -205 0
-161 -205 0
-50 -96 0
-40 -96 0
-96 -213 0
-40 -50 0
-50 -213 0
-40 -213 0
-187 -255 0
-233 -255 0
-164 -255 0
-74 -255 0
-255 -256 0
-187 -233 0
-164 -187 0
-74 -187 0
-187 -256 0
-164 -233 0
-74 -233 0
-233 -256 0
-74 -164 0
-164 -256 0
-74 -256 0
-59 -81 0
-51 -59 0
-59 -84 0
-59 -144 0
-59 -110 0
-51 -81 0
-81 -84 0
-81 -144 0
-81 -110 0
-51 -84 0
-51 -144 0
-51 -110 0
-84 -144 0
-84 -110 0
-110 -144 0
-21 -228 0
-21 -169 0
-21 -107 0
-21 -177 0
-21 -257 0
-169 -228 0
-107 -228 0
-177 -228 0
-228 -257 0
-107 -169 0
-169 -177 0
-169 -257 0
-107 -177 0
-107 -257 0
-177 -257 0
-212 -259 0
-96 -193 0
-193 -255 0
-59 -193 0
-21 -193 0
-96 -255 0
-59 -96 0
-21 -96 0
-59 -255 0
-21 -255 0
-21 -59 0
-50 -195 0
-187 -195 0
-81 -195 0
-195 -228 0
-50 -187 0
-50 -81 0
-50 -228 0
-81 -187 0
-187 -228 0
-81 -228 0
-40 -161 0
-161 -233 0
-51 -161 0
-161 -169 0
-40 -233 0
-40 -51 0
-40 -169 0
-51 -233 0
-169 -233 0
-51 -169 0
-205 -213 0
-164 -205 0
-84 -205 0
-107 -205 0
-164 -213 0
-84 -213 0
-107 -213 0
-84 -164 0
-107 -164 0
-84 -107 0
-74 -144 0
-74 -177 0
-74 -212 0
-144 -177 0
-144 -212 0
-177 -212 0
-110 -256 0
-256 -257 0
-256 -259 0
-110 -257 0
-110 -259 0
-257 -259 0
-141 -197 0
-140 -141 0
-141 -199 0
-141 -260 0
-141 -261 0
-141 -171 0
-140 -197 0
-197 -199 0
-197 -260 0
-197 -261 0
-171 -197 0
-140 -199 0
-140 -260 0
-140 -261 0
-140 -171 0
-199 -260 0
-199 -261 0
-171 -199 0
-260 -261 0
-171 -260 0
-171 -261 0
-46 -90 0
-34 -90 0
-90 -119 0
-90 -122 0
-90 -139 0
-90 -163 0
-34 -46 0
-46 -119 0
-46 -122 0
-46 -139 0
-46 -163 0
-34 -119 0
-34 -122 0
-34 -139 0
-34 -163 0
-119 -122 0
-119 -139 0
-119 -163 0
-122 -139 0
-122 -163 0
-139 -163 0
-18 -262 0
-149 -262 0
-262 -263 0
-93 -262 0
-80 -262 0
-262 -264 0
-18 -149 0
-18 -263 0
-18 -93 0
-18 -80 0
-18 -264 0
-149 -263 0
-93 -149 0
-80 -149 0
-149 -264 0
-93 -263 0
-80 -263 0
-263 -264 0
-80 -93 0
-93 -264 0
-80 -264 0
-31 -102 0
-25 -31 0
-25 -102 0
-184 -265 0
-121 -184 0
-138 -184 0
-162 -184 0
-184 -194 0
-184 -196 0
-121 -265 0
-138 -265 0
-162 -265 0
-194 -265 0
-196 -265 0
-121 -138 0
-121 -162 0
-121 -194 0
-121 -196 0
-138 -162 0
-138 -194 0
-138 -196 0
-162 -194 0
-162 -196 0
-194 -196 0
-204 -206 0
-97 -204 0
-48 -204 0
-41 -204 0
-95 -204 0
-49 -204 0
-97 -206 0
-48 -206 0
-41 -206 0
-95 -206 0
-49 -206 0
-48 -97 0
-41 -97 0
-95 -97 0
-49 -97 0
-41 -48 0
-48 -95 0
-48 -49 0
-41 -95 0
-41 -49 0
-49 -95 0
-214 -266 0
-266 -267 0
-20 -266 0
-65 -266 0
-175 -266 0
-231 -266 0
-214 -267 0
-20 -214 0
-65 -214 0
-175 -214 0
-214 -231 0
-20 -267 0
-65 -267 0
-175 -267 0
-231 -267 0
-20 -65 0
-20 -175 0
-20 -231 0
-65 -175 0
-65 -231 0
-175 -231 0
-90 -141 0
-141 -262 0
-141 -184 0
-141 -204 0
-141 -266 0
-90 -262 0
-90 -184 0
-90 -204 0
-90 -266 0
-184 -262 0
-204 -262 0
-262 -266 0
-184 -204 0
-184 -266 0
-204 -266 0
-46 -197 0
-18 -197 0
-197 -265 0
-197 -206 0
-197 -214 0
-18 -46 0
-46 -265 0
-46 -206 0
-46 -214 0
-18 -265 0
-18 -206 0
-18 -214 0
-206 -265 0
-214 -265 0
-206 -214 0
-34 -140 0
-140 -149 0
-121 -140 0
-97 -140 0
-140 -267 0
-34 -149 0
-34 -121 0
-34 -97 0
-34 -267 0
-121 -149 0
-97 -149 0
-149 -267 0
-97 -121 0
-121 -267 0
-97 -267 0
-119 -199 0
-199 -263 0
-138 -199 0
-48 -199 0
-20 -199 0
-119 -263 0
-119 -138 0
-48 -119 0
-20 -119 0
-138 -263 0
-48 -263 0
-20 -263 0
-48 -138 0
-20 -138 0
-20 -48 0
-122 -260 0
-93 -260 0
-31 -260 0
-162 -260 0
-41 -260 0
-65 -260 0
-93 -122 0
-31 -122 0
-122 -162 0
-41 -122 0
-65 -122 0
-31 -93 0
-93 -162 0
-41 -93 0
-65 -93 0
-31 -162 0
-31 -41 0
-31 -65 0
-41 -162 0
-65 -162 0
-41 -65 0
-139 -261 0
-80 -261 0
-102 -261 0
-194 -261 0
-95 -261 0
-175 -261 0
-80 -139 0
-102 -139 0
-139 -194 0
-95 -139 0
-139 -175 0
-80 -102 0
-80 -194 0
-80 -95 0
-80 -175 0
-102 -194 0
-95 -102 0
-102 -175 0
-95 -194 0
-175 -194 0
-95 -175 0
-163 -171 0
-171 -264 0
-25 -171 0
-171 -196 0
-49 -171 0
-171 -231 0
-163 -264 0
-25 -163 0
-163 -196 0
-49 -163 0
-163 -231 0
-25 -264 0
-196 -264 0
-49 -264 0
-231 -264 0
-25 -196 0
-25 -49 0
-25 -231 0
-49 -196 0
-196 -231 0
-49 -231 0
-125 -200 0
-200 -202 0
-200 -269 0
-128 -200 0
-109 -200 0
-125 -202 0
-125 -269 0
-125 -128 0
-109 -125 0
-202 -269 0
-128 -202 0
-109 -202 0
-128 -269 0
-109 -269 0
-109 -128 0
-92 -115 0
-114 -115 0
-115 -218 0
-115 -152 0
-115 -143 0
-92 -114 0
-92 -218 0
-92 -152 0
-92 -143 0
-114 -218 0
-114 -152 0
-114 -143 0
-152 -218 0
-143 -218 0
-143 -152 0
-16 -172 0
-16 -270 0
-16 -89 0
-16 -79 0
-16 -271 0
-172 -270 0
-89 -172 0
-79 -172 0
-172 -271 0
-89 -270 0
-79 -270 0
-270 -271 0
-79 -89 0
-89 -271 0
-79 -271 0
-77 -160 0
-73 -160 0
-10 -160 0
-68 -160 0
-73 -77 0
-10 -77 0
-68 -77 0
-10 -73 0
-68 -73 0
-10 -68 0
-36 -87 0
-87 -147 0
-29 -87 0
-24 -87 0
-36 -147 0
-29 -36 0
-24 -36 0
-29 -147 0
-24 -147 0
-24 -29 0
-142 -191 0
-191 -198 0
-142 -198 0
-115 -200 0
-16 -200 0
-16 -115 0
-92 -125 0
-125 -172 0
-125 -160 0
-87 -125 0
-92 -172 0
-92 -160 0
-87 -92 0
-160 -172 0
-87 -172 0
-87 -160 0
-114 -202 0
-202 -270 0
-77 -202 0
-36 -202 0
-114 -270 0
-77 -114 0
-36 -114 0
-77 -270 0
-36 -270 0
-36 -77 0
-218 -269 0
-89 -269 0
-73 -269 0
-147 -269 0
-191 -269 0
-89 -218 0
-73 -218 0
-147 -218 0
-191 -218 0
-73 -89 0
-89 -147 0
-89 -191 0
-73 -147 0
-73 -191 0
-147 -191 0
-128 -152 0
-79 -128 0
-10 -128 0
-29 -128 0
-128 -142 0
-79 -152 0
-10 -152 0
-29 -152 0
-142 -152 0
-10 -79 0
-29 -79 0
-79 -142 0
-10 -29 0
-10 -142 0
-29 -142 0
-109 -143 0
-109 -271 0
-68 -109 0
-24 -109 0
-109 -198 0
-143 -271 0
-68 -143 0
-24 -143 0
-143 -198 0
-68 -271 0
-24 -271 0
-198 -271 0
-24 -68 0
-68 -198 0
-24 -198 0
-9 -130 0
-8 -9 0
-7 -9 0
-9 -61 0
-8 -130 0
-7 -130 0
-61 -130 0
-7 -8 0
-8 -61 0
-7 -61 0
-54 -57 0
-28 -57 0
-57 -154 0
-23 -57 0
-28 -54 0
-54 -154 0
-23 -54 0
-28 -154 0
-23 -28 0
-23 -154 0
-6 -101 0
-6 -71 0
-5 -6 0
-6 -67 0
-71 -101 0
-5 -101 0
-67 -101 0
-5 -71 0
-67 -71 0
-5 -67 0
-42 -78 0
-78 -118 0
-78 -111 0
-78 -135 0
-42 -118 0
-42 -111 0
-42 -135 0
-111 -118 0
-118 -135 0
-111 -135 0
-4 -185 0
-3 -4 0
-4 -189 0
-4 -192 0
-4 -120 0
-4 -201 0
-3 -185 0
-185 -189 0
-185 -192 0
-120 -185 0
-185 -201 0
-3 -189 0
-3 -192 0
-3 -120 0
-3 -201 0
-189 -192 0
-120 -189 0
-189 -201 0
-120 -192 0
-192 -201 0
-120 -201 0
-2 -126 0
-2 -268 0
-2 -127 0
-2 -38 0
-1 -2 0
-2 -116 0
-126 -268 0
-126 -127 0
-38 -126 0
-1 -126 0
-116 -126 0
-127 -268 0
-38 -268 0
-1 -268 0
-116 -268 0
-38 -127 0
-1 -127 0
-116 -127 0
-1 -38 0
-38 -116 0
-1 -116 0
-91 -133 0
-133 -219 0
-133 -151 0
-12 -133 0
-133 -173 0
-15 -133 0
-91 -219 0
-91 -151 0
-12 -91 0
-91 -173 0
-15 -91 0
-151 -219 0
-12 -219 0
-173 -219 0
-15 -219 0
-12 -151 0
-151 -173 0
-15 -151 0
-12 -173 0
-12 -15 0
-15 -173 0
-9 -57 0
-4 -9 0
-2 -9 0
-9 -133 0
-4 -57 0
-2 -57 0
-57 -133 0
-2 -4 0
-4 -133 0
-2 -133 0
-54 -130 0
-130 -185 0
-126 -130 0
-91 -130 0
-54 -185 0
-54 -126 0
-54 -91 0
-126 -185 0
-91 -185 0
-91 -126 0
-6 -78 0
-3 -6 0
-6 -268 0
-6 -219 0
-3 -78 0
-78 -268 0
-78 -219 0
-3 -268 0
-3 -219 0
-219 -268 0
-42 -101 0
-101 -189 0
-101 -127 0
-101 -151 0
-42 -189 0
-42 -127 0
-42 -151 0
-127 -189 0
-151 -189 0
-127 -151 0
-8 -28 0
-8 -71 0
-8 -118 0
-8 -192 0
-8 -38 0
-8 -12 0
-28 -71 0
-28 -118 0
-28 -192 0
-28 -38 0
-12 -28 0
-71 -118 0
-71 -192 0
-38 -71 0
-12 -71 0
-118 -192 0
-38 -118 0
-12 -118 0
-38 -192 0
-12 -192 0
-12 -38 0
-7 -154 0
-5 -7 0
-7 -111 0
-7 -120 0
-1 -7 0
-7 -173 0
-5 -154 0
-111 -154 0
-120 -154 0
-1 -154 0
-154 -173 0
-5 -111 0
-5 -120 0
-1 -5 0
-5 -173 0
-111 -120 0
-1 -111 0
-111 -173 0
-1 -120 0
-120 -173 0
-1 -173 0
-23 -61 0
-61 -67 0
-61 -135 0
-61 -201 0
-61 -116 0
-15 -61 0
-23 -67 0
-23 -135 0
-23 -201 0
-23 -116 0
-15 -23 0
-67 -135 0
-67 -201 0
-67 -116 0
-15 -67 0
-135 -201 0
-116 -135 0
-15 -135 0
-116 -201 0
-15 -201 0
-15 -116 0
-85 -209 0
-145 -209 0
-209 -221 0
-209 -226 0
-178 -209 0
-85 -145 0
-85 -221 0
-85 -226 0
-85 -178 0
-145 -221 0
-145 -226 0
-145 -178 0
-221 -226 0
-178 -221 0
-178 -226 0
-211 -258 0
-211 -243 0
-167 -211 0
-211 -244 0
-170 -211 0
-243 -258 0
-167 -258 0
-244 -258 0
-170 -258 0
-167 -243 0
-243 -244 0
-170 -243 0
-167 -244 0
-167 -170 0
-170 -244 0
-193 -195 0
-96 -193 0
-50 -193 0
-96 -195 0
-50 -195 0
-50 -96 0
-141 -197 0
-90 -141 0
-46 -141 0
-141 -262 0
-18 -141 0
-90 -197 0
-46 -197 0
-197 -262 0
-18 -197 0
-46 -90 0
-90 -262 0
-18 -90 0
-46 -262 0
-18 -46 0
-18 -262 0
-115 -200 0
-16 -200 0
-16 -115 0
-9 -130 0
-9 -57 0
-9 -54 0
-57 -130 0
-54 -130 0
-54 -57 0
-106 -234 0
-129 -236 0
-100 -166 0
-72 -100 0
-100 -112 0
-100 -136 0
-100 -158 0
-72 -166 0
-112 -166 0
-136 -166 0
-158 -166 0
-72 -112 0
-72 -136 0
-72 -158 0
-112 -136 0
-112 -158 0
-136 -158 0
-161 -205 0
-40 -161 0
-161 -213 0
-40 -205 0
-205 -213 0
-40 -213 0
-140 -199 0
-34 -140 0
-119 -140 0
-140 -149 0
-140 -263 0
-34 -199 0
-119 -199 0
-149 -199 0
-199 -263 0
-34 -119 0
-34 -149 0
-34 -263 0
-119 -149 0
-119 -263 0
-149 -263 0
-125 -202 0
-92 -125 0
-114 -125 0
-125 -172 0
-125 -270 0
-92 -202 0
-114 -202 0
-172 -202 0
-202 -270 0
-92 -114 0
-92 -172 0
-92 -270 0
-114 -172 0
-114 -270 0
-172 -270 0
-26 -103 0
-98 -103 0
-26 -98 0
-132 -239 0
-216 -239 0
-157 -239 0
-132 -216 0
-132 -157 0
-157 -216 0
-99 -104 0
-83 -104 0
-104 -245 0
-83 -99 0
-99 -245 0
-83 -245 0
-260 -261 0
-171 -260 0
-122 -260 0
-139 -260 0
-163 -260 0
-93 -260 0
-80 -260 0
-260 -264 0
-171 -261 0
-122 -261 0
-139 -261 0
-163 -261 0
-93 -261 0
-80 -261 0
-261 -264 0
-122 -171 0
-139 -171 0
-163 -171 0
-93 -171 0
-80 -171 0
-171 -264 0
-122 -139 0
-122 -163 0
-93 -122 0
-80 -122 0
-122 -264 0
-139 -163 0
-93 -139 0
-80 -139 0
-139 -264 0
-93 -163 0
-80 -163 0
-163 -264 0
-80 -93 0
-93 -264 0
-80 -264 0
-128 -269 0
-109 -269 0
-218 -269 0
-152 -269 0
-143 -269 0
-89 -269 0
-79 -269 0
-269 -271 0
-109 -128 0
-128 -218 0
-128 -152 0
-128 -143 0
-89 -128 0
-79 -128 0
-128 -271 0
-109 -218 0
-109 -152 0
-109 -143 0
-89 -109 0
-79 -109 0
-109 -271 0
-152 -218 0
-143 -218 0
-89 -218 0
-79 -218 0
-218 -271 0
-143 -152 0
-89 -152 0
-79 -152 0
-152 -271 0
-89 -143 0
-79 -143 0
-143 -271 0
-79 -89 0
-89 -271 0
-79 -271 0
-7 -8 0
-8 -61 0
-8 -28 0
-8 -154 0
-8 -23 0
-7 -61 0
-7 -28 0
-7 -154 0
-7 -23 0
-28 -61 0
-61 -154 0
-23 -61 0
-28 -154 0
-23 -28 0
-23 -154 0
-66 -108 0
-58 -66 0
-58 -108 0
-124 -153 0
-246 -247 0
-246 -248 0
-62 -246 0
-60 -246 0
-56 -246 0
-155 -246 0
-22 -246 0
-246 -249 0
-247 -248 0
-62 -247 0
-60 -247 0
-56 -247 0
-155 -247 0
-22 -247 0
-247 -249 0
-62 -248 0
-60 -248 0
-56 -248 0
-155 -248 0
-22 -248 0
-248 -249 0
-60 -62 0
-56 -62 0
-62 -155 0
-22 -62 0
-62 -249 0
-56 -60 0
-60 -155 0
-22 -60 0
-60 -249 0
-56 -155 0
-22 -56 0
-56 -249 0
-22 -155 0
-155 -249 0
-22 -249 0
-187 -255 0
-59 -255 0
-81 -255 0
-21 -255 0
-228 -255 0
-59 -187 0
-81 -187 0
-21 -187 0
-187 -228 0
-59 -81 0
-21 -59 0
-59 -228 0
-21 -81 0
-81 -228 0
-21 -228 0
-39 -47 0
-19 -47 0
-47 -64 0
-19 -39 0
-39 -64 0
-19 -64 0
-45 -117 0
-17 -45 0
-45 -105 0
-17 -117 0
-105 -117 0
-17 -105 0
-44 -55 0
-37 -55 0
-55 -240 0
-14 -55 0
-11 -55 0
-37 -44 0
-44 -240 0
-14 -44 0
-11 -44 0
-37 -240 0
-14 -37 0
-11 -37 0
-14 -240 0
-11 -240 0
-11 -14 0
-131 -156 0
-53 -131 0
-43 -131 0
-131 -250 0
-13 -131 0
-53 -156 0
-43 -156 0
-156 -250 0
-13 -156 0
-43 -53 0
-53 -250 0
-13 -53 0
-43 -250 0
-13 -43 0
-13 -250 0
-164 -233 0
-51 -233 0
-84 -233 0
-169 -233 0
-107 -233 0
-51 -164 0
-84 -164 0
-164 -169 0
-107 -164 0
-51 -84 0
-51 -169 0
-51 -107 0
-84 -169 0
-84 -107 0
-107 -169 0
-77 -160 0
-87 -160 0
-36 -160 0
-77 -87 0
-36 -77 0
-36 -87 0
-6 -101 0
-6 -78 0
-6 -42 0
-78 -101 0
-42 -101 0
-42 -78 0
-30 -35 0
-35 -134 0
-35 -174 0
-35 -230 0
-35 -180 0
-30 -134 0
-30 -174 0
-30 -230 0
-30 -180 0
-134 -174 0
-134 -230 0
-134 -180 0
-174 -230 0
-174 -180 0
-180 -230 0
-33 -123 0
-33 -150 0
-33 -94 0
-123 -150 0
-94 -123 0
-94 -150 0
-69 -76 0
-32 -76 0
-27 -76 0
-76 -176 0
-76 -181 0
-32 -69 0
-27 -69 0
-69 -176 0
-69 -181 0
-27 -32 0
-32 -176 0
-32 -181 0
-27 -176 0
-27 -181 0
-176 -181 0
-74 -256 0
-74 -144 0
-74 -110 0
-74 -177 0
-74 -257 0
-144 -256 0
-110 -256 0
-177 -256 0
-256 -257 0
-110 -144 0
-144 -177 0
-144 -257 0
-110 -177 0
-110 -257 0
-177 -257 0
-31 -102 0
-25 -31 0
-25 -102 0
-10 -73 0
-68 -73 0
-73 -147 0
-29 -73 0
-24 -73 0
-10 -68 0
-10 -147 0
-10 -29 0
-10 -24 0
-68 -147 0
-29 -68 0
-24 -68 0
-29 -147 0
-24 -147 0
-24 -29 0
-5 -71 0
-67 -71 0
-71 -118 0
-71 -111 0
-71 -135 0
-5 -67 0
-5 -118 0
-5 -111 0
-5 -135 0
-67 -118 0
-67 -111 0
-67 -135 0
-111 -118 0
-118 -135 0
-111 -135 0
-70 -229 0
-63 -229 0
-63 -70 0
-182 -203 0
-182 -235 0
-203 -235 0
-183 -251 0
-251 -252 0
-113 -251 0
-137 -251 0
-159 -251 0
-183 -252 0
-113 -183 0
-137 -183 0
-159 -183 0
-113 -252 0
-137 -252 0
-159 -252 0
-113 -137 0
-113 -159 0
-137 -159 0
-184 -265 0
-184 -204 0
-184 -206 0
-184 -266 0
-184 -214 0
-204 -265 0
-206 -265 0
-265 -266 0
-214 -265 0
-204 -206 0
-204 -266 0
-204 -214 0
-206 -266 0
-206 -214 0
-214 -266 0
-4 -185 0
-2 -4 0
-4 -126 0
-4 -133 0
-4 -91 0
-2 -185 0
-126 -185 0
-133 -185 0
-91 -185 0
-2 -126 0
-2 -133 0
-2 -91 0
-126 -133 0
-91 -126 0
-91 -133 0
-186 -232 0
-82 -186 0
-52 -186 0
-186 -227 0
-168 -186 0
-82 -232 0
-52 -232 0
-227 -232 0
-168 -232 0
-52 -82 0
-82 -227 0
-82 -168 0
-52 -227 0
-52 -168 0
-168 -227 0
-207 -241 0
-208 -241 0
-215 -241 0
-241 -242 0
-220 -241 0
-207 -208 0
-207 -215 0
-207 -242 0
-207 -220 0
-208 -215 0
-208 -242 0
-208 -220 0
-215 -242 0
-215 -220 0
-220 -242 0
-188 -253 0
-217 -253 0
-253 -254 0
-188 -217 0
-188 -254 0
-217 -254 0
-121 -138 0
-97 -121 0
-48 -121 0
-121 -267 0
-20 -121 0
-97 -138 0
-48 -138 0
-138 -267 0
-20 -138 0
-48 -97 0
-97 -267 0
-20 -97 0
-48 -267 0
-20 -48 0
-20 -267 0
-3 -189 0
-3 -268 0
-3 -127 0
-3 -219 0
-3 -151 0
-189 -268 0
-127 -189 0
-189 -219 0
-151 -189 0
-127 -268 0
-219 -268 0
-151 -268 0
-127 -219 0
-127 -151 0
-151 -219 0
-165 -190 0
-75 -190 0
-190 -210 0
-86 -190 0
-146 -190 0
-190 -222 0
-190 -225 0
-179 -190 0
-75 -165 0
-165 -210 0
-86 -165 0
-146 -165 0
-165 -222 0
-165 -225 0
-165 -179 0
-75 -210 0
-75 -86 0
-75 -146 0
-75 -222 0
-75 -225 0
-75 -179 0
-86 -210 0
-146 -210 0
-210 -222 0
-210 -225 0
-179 -210 0
-86 -146 0
-86 -222 0
-86 -225 0
-86 -179 0
-146 -222 0
-146 -225 0
-146 -179 0
-222 -225 0
-179 -222 0
-179 -225 0
-223 -238 0
-88 -148 0
-88 -224 0
-88 -237 0
-148 -224 0
-148 -237 0
-224 -237 0
-212 -259 0
-162 -194 0
-162 -196 0
-41 -162 0
-95 -162 0
-49 -162 0
-65 -162 0
-162 -175 0
-162 -231 0
-194 -196 0
-41 -194 0
-95 -194 0
-49 -194 0
-65 -194 0
-175 -194 0
-194 -231 0
-41 -196 0
-95 -196 0
-49 -196 0
-65 -196 0
-175 -196 0
-196 -231 0
-41 -95 0
-41 -49 0
-41 -65 0
-41 -175 0
-41 -231 0
-49 -95 0
-65 -95 0
-95 -175 0
-95 -231 0
-49 -65 0
-49 -175 0
-49 -231 0
-65 -175 0
-65 -231 0
-175 -231 0
-142 -191 0
-191 -198 0
-142 -198 0
-120 -192 0
-192 -201 0
-38 -192 0
-1 -192 0
-116 -192 0
-12 -192 0
-173 -192 0
-15 -192 0
-120 -201 0
-38 -120 0
-1 -120 0
-116 -120 0
-12 -120 0
-120 -173 0
-15 -120 0
-38 -201 0
-1 -201 0
-116 -201 0
-12 -201 0
-173 -201 0
-15 -201 0
-1 -38 0
-38 -116 0
-12 -38 0
-38 -173 0
-15 -38 0
-1 -116 0
-1 -12 0
-1 -173 0
-1 -15 0
-12 -116 0
-116 -173 0
-15 -116 0
-12 -173 0
-12 -15 0
-15 -173 0
